(set-logic QF_FPABV)
(declare-fun b24 () (_ FP 11 53))
(declare-fun b28 () (_ FP 11 53))
(declare-fun b21 () (_ FP 11 53))
(declare-fun b41 () (_ FP 11 53))
(declare-fun b8 () (_ FP 11 53))
(declare-fun b11 () (_ FP 11 53))
(declare-fun b9 () (_ FP 11 53))
(declare-fun b19 () (_ FP 11 53))
(declare-fun b38 () (_ FP 11 53))
(declare-fun b31 () (_ FP 11 53))
(declare-fun b15 () (_ FP 11 53))
(define-fun .3 () RoundingMode roundNearestTiesToEven)
(define-fun .9 () (_ FP 11 53) b9)
(define-fun .10 () (_ FP 11 53) b21)
(define-fun .11 () Bool (<= .9 .10))
(define-fun .12 () (_ FP 11 53) b11)
(define-fun .13 () (_ FP 11 53) (+ .3 .9 .12))
(define-fun .14 () (_ FP 11 53) b8)
(define-fun .15 () (_ FP 11 53) (+ .3 .9 .14))
(define-fun .16 () (_ FP 11 53) (* .3 .13 .15))
(define-fun .17 () (_ FP 11 53) b15)
(define-fun .18 () Bool (< .17 .16))
(define-fun .19 () Bool (and .11 .18))
(define-fun .20 () (_ FP 11 53) b24)
(define-fun .21 () Bool (<= .20 .9))
(define-fun .22 () Bool (and .19 .21))
(define-fun .23 () (_ FP 11 53) b28)
(define-fun .24 () Bool (<= .14 .23))
(define-fun .25 () Bool (and .22 .24))
(define-fun .26 () (_ FP 11 53) b31)
(define-fun .27 () Bool (<= .26 .14))
(define-fun .28 () Bool (and .25 .27))
(define-fun .29 () Bool (<= .12 .23))
(define-fun .30 () Bool (and .28 .29))
(define-fun .31 () Bool (<= .26 .12))
(define-fun .32 () Bool (and .30 .31))
(define-fun .33 () (_ FP 11 53) b19)
(define-fun .34 () (_ FP 11 53) b38)
(define-fun .35 () Bool (<= .33 .34))
(define-fun .36 () Bool (and .32 .35))
(define-fun .37 () (_ FP 11 53) b41)
(define-fun .38 () Bool (<= .37 .33))
(define-fun .39 () Bool (and .36 .38))
(assert .39)
(check-sat)
